
Gurobi 8.1.1 (win64, Python) logging started 06/24/19 16:44:16

Academic license - for non-commercial use only

Gurobi 8.1.1 (win64, Python) logging started 06/24/19 16:44:22

Academic license - for non-commercial use only

Gurobi 8.1.1 (win64, Python) logging started 06/24/19 16:44:26

Academic license - for non-commercial use only

Gurobi 8.1.1 (win64, Python) logging started 06/24/19 16:46:26

Academic license - for non-commercial use only

Gurobi 8.1.1 (win64, Python) logging started 06/24/19 16:52:14

Academic license - for non-commercial use only

Gurobi 8.1.1 (win64, Python) logging started 06/24/19 16:58:58

Academic license - for non-commercial use only

Gurobi 8.1.1 (win64, Python) logging started 06/24/19 16:59:42

Academic license - for non-commercial use only

Gurobi 8.1.1 (win64, Python) logging started 06/24/19 17:00:02

Academic license - for non-commercial use only

Gurobi 8.1.1 (win64, Python) logging started 06/24/19 17:00:25

Academic license - for non-commercial use only

Gurobi 8.1.1 (win64, Python) logging started 06/24/19 17:06:58

Academic license - for non-commercial use only

Gurobi 8.1.1 (win64, Python) logging started 06/24/19 17:10:00

Academic license - for non-commercial use only

Gurobi 8.1.1 (win64, Python) logging started 06/24/19 17:10:42

Academic license - for non-commercial use only

Gurobi 8.1.1 (win64, Python) logging started 06/24/19 17:10:58

Academic license - for non-commercial use only

Gurobi 8.1.1 (win64, Python) logging started 06/24/19 17:11:22

Academic license - for non-commercial use only

Gurobi 8.1.1 (win64, Python) logging started 06/24/19 17:11:31

Academic license - for non-commercial use only

Gurobi 8.1.1 (win64, Python) logging started 06/24/19 17:12:23

Academic license - for non-commercial use only

Gurobi 8.1.1 (win64, Python) logging started 06/24/19 17:12:36

Academic license - for non-commercial use only

Gurobi 8.1.1 (win64, Python) logging started 06/24/19 17:12:48

Academic license - for non-commercial use only

Gurobi 8.1.1 (win64, Python) logging started 06/24/19 17:27:51

Academic license - for non-commercial use only
